
Log started (V11.0.0) Wed May 14 13:22:30 2008

Tried aggregator 1 time.
Reduced MIP has 130 rows, 3001 columns, and 6030 nonzeros.
Presolve time =    0.02 sec.
Clique table members: 100.
MIP emphasis: balance optimality and feasibility.
MIP search method: dynamic search.
Parallel mode: none, using 1 thread.
Root relaxation solution time =    0.08 sec.

        Nodes                                         Cuts/
   Node  Left     Objective  IInf  Best Integer     Best Node    ItCnt     Gap

*     0+    0                        10101.0000       86.7944      383   99.14%
*     0+    0                          117.0000       86.7944      383   25.82%
      0     0       87.7834    55      117.0000      Fract: 5      428   24.97%
*     0+    0                          110.0000       87.7834      428   20.20%
      0     0       91.9402    50      110.0000      Cuts: 26      679   16.42%
      0     0       92.5799    54      110.0000      Cuts: 14      789   15.84%
*     0+    0                          104.0000       92.5799      789   10.98%
      0     0       92.5799    57      104.0000       Cuts: 4      793   10.98%
      0     0       93.5076    53      104.0000       Cuts: 5      826   10.09%
*     0+    0                          101.0000       93.5076      826    7.42%
      0     0       93.9247    41      101.0000       Cuts: 4      838    7.01%
      0     0       94.3442    56      101.0000       Cuts: 6      872    6.59%
      0     0       94.4486    46      101.0000       Cuts: 8      884    6.49%
      0     0       94.4756    46      101.0000    MIRcuts: 2      892    6.46%
      0     0       94.6865    42      101.0000    MIRcuts: 2      907    6.25%
*     0+    0                          100.0000       94.6865      907    5.31%
      0     2       95.0000    36      100.0000       94.6865      907    5.31%
    100    83       95.0000    18      100.0000       95.0000     2355    5.00%
    200   155       99.0000    14      100.0000       95.0000     3578    5.00%
    300   231       97.0000    19      100.0000       95.0000     4541    5.00%
    400   304       98.0000    23      100.0000       95.0000     5485    5.00%
*   491+  248                           99.0000       96.0000     7317    3.03%
    500   250       96.0000    35       99.0000       96.0000     7448    3.03%
    600   265       97.0000    15       99.0000       96.0000     9111    3.03%
    700   278    infeasible             99.0000       96.0000    11488    3.03%
    800   284       98.0000    10       99.0000       96.0000    15279    3.03%
    900   319       98.0000    10       99.0000       96.0000    18388    3.03%
*   931+   63                           98.0000       96.0000    19195    2.04%
   1000   123       97.0000    33       98.0000       96.0000    20230    2.04%
Elapsed time =  11.63 sec. (tree size =  0.39 MB, solutions = 8)
   1100   168       96.6668    46       98.0000       96.0000    22252    2.04%
   1200   225       97.0000    32       98.0000       96.0000    24403    2.04%
   1300   283       97.0000    19       98.0000       96.0000    26213    2.04%
   1400   336       97.0000    26       98.0000       96.0000    28128    2.04%
   1500   404    infeasible             98.0000       96.0000    29875    2.04%
   1600   485       97.0000    14       98.0000       96.0000    31217    2.04%
   1700   532       97.0000    33       98.0000       96.0000    33574    2.04%
   1800   591       97.0000    35       98.0000       96.0000    35353    2.04%
   1900   631       96.7595    48       98.0000       96.0000    37367    2.04%
   2000   681       97.0000    18       98.0000       96.0000    39505    2.04%
Elapsed time =  17.31 sec. (tree size =  2.37 MB, solutions = 8)
   2100   737       97.0000    41       98.0000       96.0000    41927    2.04%
   2200   758    infeasible             98.0000       97.0000    44758    1.02%
   2300   668    infeasible             98.0000       97.0000    49240    1.02%
   2400   568    infeasible             98.0000       97.0000    53334    1.02%
   2500   478    infeasible             98.0000       97.0000    57705    1.02%
   2600   398    infeasible             98.0000       97.0000    61637    1.02%
   2700   316       97.0000    28       98.0000       97.0000    65657    1.02%
   2800   256       97.0000    26       98.0000       97.0000    68677    1.02%
   2900   192    infeasible             98.0000       97.0000    72485    1.02%
   3000   203    infeasible             98.0000       97.0000    74738    1.02%
Elapsed time =  23.31 sec. (tree size =  0.75 MB, solutions = 8)
   3100   158        cutoff             98.0000       97.0000    77696    1.02%
   3200    88    infeasible             98.0000       97.0000    80504    1.02%
   3300    63    infeasible             98.0000       97.0000    82531    1.02%
   3400    29    infeasible             98.0000       97.0000    84920    1.02%
   3500    13       97.0000    41       98.0000       97.0000    86928    1.02%
   3600     3    infeasible             98.0000       97.0000    88498    1.02%

Clique cuts applied:  1
Cover cuts applied:  105
Implied bound cuts applied:  2
Flow cuts applied:  1
Mixed integer rounding cuts applied:  21
Gomory fractional cuts applied:  1

Solution pool: 8 solutions saved.

MIP - Integer optimal solution:  Objective = 9.8000000000e+001
Solution time =   26.81 sec.  Iterations = 88639  Nodes = 3608


Incumbent solution
Variable Name           Solution Value
Cmax                         98.000000
X_1_1                         1.000000
X_2_3                         1.000000
X_3_7                         1.000000
X_4_25                        1.000000
X_5_19                        1.000000
X_6_24                        1.000000
X_7_17                        1.000000
X_8_24                        1.000000
X_9_20                        1.000000
X_10_10                       1.000000
X_11_20                       1.000000
X_12_16                       1.000000
X_13_18                       1.000000
X_14_27                       1.000000
X_15_25                       1.000000
X_16_20                       1.000000
X_17_2                        1.000000
X_18_20                       1.000000
X_19_26                       1.000000
X_20_24                       1.000000
X_21_27                       1.000000
X_22_18                       1.000000
X_23_7                        1.000000
X_24_24                       1.000000
X_25_24                       1.000000
X_26_24                       1.000000
X_27_26                       1.000000
X_28_24                       1.000000
X_29_20                       1.000000
X_30_20                       1.000000
X_31_2                        1.000000
X_32_25                       1.000000
X_33_20                       1.000000
X_34_18                       1.000000
X_35_24                       1.000000
X_36_21                       1.000000
X_37_19                       1.000000
X_38_24                       1.000000
X_39_18                       1.000000
X_40_5                        1.000000
X_41_20                       1.000000
X_42_5                        1.000000
X_43_19                       1.000000
X_44_20                       1.000000
X_45_26                       1.000000
X_46_20                       1.000000
X_47_24                       1.000000
X_48_20                       1.000000
X_49_1                        1.000000
X_50_20                       1.000000
X_51_20                       1.000000
X_52_24                       1.000000
X_53_19                       1.000000
X_54_5                        1.000000
X_55_24                       1.000000
X_56_24                       1.000000
X_57_7                        1.000000
X_58_20                       1.000000
X_59_20                       1.000000
X_60_13                       1.000000
X_61_4                        1.000000
X_62_18                       1.000000
X_63_18                       1.000000
X_64_8                        1.000000
X_65_18                       1.000000
X_66_23                       1.000000
X_67_5                        1.000000
X_68_19                       1.000000
X_69_26                       1.000000
X_70_20                       1.000000
X_71_26                       1.000000
X_72_20                       1.000000
X_73_16                       1.000000
X_74_27                       1.000000
X_75_18                       1.000000
X_76_20                       1.000000
X_77_6                        1.000000
X_78_20                       1.000000
X_79_12                       1.000000
X_80_20                       1.000000
X_81_24                       1.000000
X_82_14                       1.000000
X_83_24                       1.000000
X_84_11                       1.000000
X_85_26                       1.000000
X_86_19                       1.000000
X_87_28                       1.000000
X_88_25                       1.000000
X_89_15                       1.000000
X_90_7                        1.000000
X_91_24                       1.000000
X_92_30                       1.000000
X_93_29                       1.000000
X_94_25                       1.000000
X_95_20                       1.000000
X_96_9                        1.000000
X_97_22                       1.000000
X_98_7                        1.000000
X_99_27                       1.000000
X_100_24                      1.000000
All other variables in the range 1-3001 are 0.
